
Gurobi 9.1.2 (win64, Java) logging started Fri Nov  5 20:00:01 2021

Academic license - for non-commercial use only - expires 2022-10-30
Gurobi Optimizer version 9.1.2 build v9.1.2rc0 (win64)
Thread count: 6 physical cores, 12 logical processors, using up to 12 threads
Optimize a model with 60 rows, 800 columns and 1600 nonzeros
Model fingerprint: 0xa03816fd
Variable types: 0 continuous, 800 integer (800 binary)
Coefficient statistics:
  Matrix range     [1e+00, 1e+03]
  Objective range  [6e+01, 1e+03]
  Bounds range     [1e+00, 1e+00]
  RHS range        [1e+00, 1e+03]
Found heuristic solution: objective 12341.000000
Presolve removed 17 rows and 562 columns
Presolve time: 0.01s
Presolved: 43 rows, 238 columns, 476 nonzeros
Variable types: 0 continuous, 238 integer (238 binary)
Presolved: 43 rows, 238 columns, 476 nonzeros


Root relaxation: objective 1.544489e+04, 88 iterations, 0.00 seconds

    Nodes    |    Current Node    |     Objective Bounds      |     Work
 Expl Unexpl |  Obj  Depth IntInf | Incumbent    BestBd   Gap | It/Node Time

     0     0 15444.8911    0   11 12341.0000 15444.8911  25.2%     -    0s
H    0     0                    14549.000000 15444.8911  6.16%     -    0s
H    0     0                    14669.000000 15444.8911  5.29%     -    0s
H    0     0                    14892.000000 15444.8911  3.71%     -    0s
H    0     0                    15160.000000 15431.7701  1.79%     -    0s
     0     0 15393.3602    0   22 15160.0000 15393.3602  1.54%     -    0s
H    0     0                    15258.000000 15393.3602  0.89%     -    0s
H    0     0                    15311.000000 15393.3602  0.54%     -    0s
     0     0 15370.5099    0   31 15311.0000 15370.5099  0.39%     -    0s
     0     0 15370.5099    0    9 15311.0000 15370.5099  0.39%     -    0s
     0     0 15370.5099    0   21 15311.0000 15370.5099  0.39%     -    0s
     0     0 15369.5619    0   18 15311.0000 15369.5619  0.38%     -    0s
     0     0 15368.4032    0   22 15311.0000 15368.4032  0.37%     -    0s
     0     0 15367.8766    0   29 15311.0000 15367.8766  0.37%     -    0s
     0     0 15367.3737    0   31 15311.0000 15367.3737  0.37%     -    0s
     0     0 15367.1567    0   30 15311.0000 15367.1567  0.37%     -    0s
     0     0 15354.2012    0   28 15311.0000 15354.2012  0.28%     -    0s
     0     0 15353.1941    0   26 15311.0000 15353.1941  0.28%     -    0s
     0     0 15353.1623    0   30 15311.0000 15353.1623  0.28%     -    0s
     0     0 15344.0416    0   27 15311.0000 15344.0416  0.22%     -    0s
     0     0 15344.0416    0   28 15311.0000 15344.0416  0.22%     -    0s
     0     0 15341.6753    0   34 15311.0000 15341.6753  0.20%     -    0s
     0     0 15340.5298    0   24 15311.0000 15340.5298  0.19%     -    0s
     0     0 15340.0269    0   27 15311.0000 15340.0269  0.19%     -    0s
     0     0 15339.5518    0   32 15311.0000 15339.5518  0.19%     -    0s
     0     0 15339.2364    0   33 15311.0000 15339.2364  0.18%     -    0s
     0     0 15338.3465    0   34 15311.0000 15338.3465  0.18%     -    0s
     0     0 15338.2732    0   32 15311.0000 15338.2732  0.18%     -    0s
     0     0 15337.8741    0   39 15311.0000 15337.8741  0.18%     -    0s
     0     0 15333.4330    0   13 15311.0000 15333.4330  0.15%     -    0s
     0     0 15333.4330    0   13 15311.0000 15333.4330  0.15%     -    0s
     0     0 15333.4330    0    5 15311.0000 15333.4330  0.15%     -    0s
     0     0 15333.4330    0   13 15311.0000 15333.4330  0.15%     -    0s
     0     0 15333.4330    0   11 15311.0000 15333.4330  0.15%     -    0s
     0     0 15311.0000    0   20 15311.0000 15311.0000  0.00%     -    0s

Cutting planes:
  Gomory: 14
  Cover: 5
  MIR: 8
  StrongCG: 3
  RLT: 1

Explored 1 nodes (550 simplex iterations) in 0.88 seconds
Thread count was 12 (of 12 available processors)

Solution count 7: 15311 15258 15160 ... 12341

Optimal solution found (tolerance 1.00e-04)
Best objective 1.531100000000e+04, best bound 1.531100000000e+04, gap 0.0000%
